Set parameter TokenServer to value "hpc-licenses.hpcc.usc.edu"
Set parameter TimeLimit to value 3600
Gurobi Optimizer version 9.5.1 build v9.5.1rc2 (linux64)
Thread count: 20 physical cores, 20 logical processors, using up to 20 threads
Optimize a model with 6007 rows, 4529 columns and 24534 nonzeros
Model fingerprint: 0xc0dfe9e2
Variable types: 4506 continuous, 23 integer (23 binary)
Coefficient statistics:
  Matrix range     [1e+00, 1e+00]
  Objective range  [9e-04, 1e+00]
  Bounds range     [1e+00, 1e+00]
  RHS range        [1e+00, 6e+01]
Found heuristic solution: objective 255.4945995
Presolve removed 1520 rows and 1515 columns
Presolve time: 0.17s
Presolved: 4487 rows, 3014 columns, 21975 nonzeros
Variable types: 2994 continuous, 20 integer (20 binary)

Root relaxation: objective 2.643078e+02, 2476 iterations, 0.11 seconds (0.14 work units)

    Nodes    |    Current Node    |     Objective Bounds      |     Work
 Expl Unexpl |  Obj  Depth IntInf | Incumbent    BestBd   Gap | It/Node Time

     0     0  264.30778    0    4  255.49460  264.30778  3.45%     -    0s
H    0     0                     257.7639495  264.30778  2.54%     -    0s
     0     0  264.08321    0    4  257.76395  264.08321  2.45%     -    0s
     0     0  263.82901    0    4  257.76395  263.82901  2.35%     -    0s
     0     0  263.78110    0    6  257.76395  263.78110  2.33%     -    0s
H    0     0                     263.1679461  263.78110  0.23%     -    0s
     0     0  263.77964    0    4  263.16795  263.77964  0.23%     -    0s

Cutting planes:
  Gomory: 5
  MIR: 190
  Flow cover: 1
  RLT: 15
  Relax-and-lift: 1

Explored 1 nodes (3149 simplex iterations) in 0.94 seconds (0.65 work units)
Thread count was 20 (of 20 available processors)

Solution count 3: 263.168 257.764 255.495 

Optimal solution found (tolerance 1.00e-04)
Best objective 2.631679461362e+02, best bound 2.631679461362e+02, gap 0.0000%



#########node  1
V1.9
#########node  2
0.0,1.0
#########node  3
0.9821428571428572,0.017857142857142794


Total Solving Time 1.3211281299591064
obj value 263.1679461361957
Policy Regret train (Sum) 18.330847802036036
Best Treatment Found train (%) 39.4
treatment classification acc train (%) 52.2
Policy Regret test (Sum) 105.47520302296739
Best Treatment Found test (%) 66.02
treatment classification acc test (%) 51.17
